n_boats=42;
n_periods=18;
capacity=[30,42,15,2,22,33,41,12,37,13,34,11,3,17,4,44,44,18,18,24,25,35,19,22,41,4,15,4,28,8,9,36,31,39,17,12,35,28,3,34,41,28];
crew=[16,17,4,1,9,7,15,6,11,2,17,2,1,4,1,11,8,4,6,13,8,7,11,5,8,2,6,2,14,4,2,14,18,7,10,5,9,6,1,12,14,14];
